results/x-10M/X-n190-k8.vrp_seed-0.out
16980	10785
