results/x-10M/X-n190-k8.vrp_seed-0.vrp.sol
Route #1: 172 127 44 88 165 1 184 160 182 83 29 37
Route #2: 131 118 99 45 149 139 72 133 156 129 108 103 34 4 128 163 110 168 120 13 171 66 63 57 19 105
Route #3: 106 119 49 26 117 175 11 122 82 116 60 79 17 155 7 162 33 107 113 23 158 121 75 93 51 170 16
Route #4: 31 14 67 166 157 173 132 134 161 74 111 164 69 178 21 50 94 115 145 81 142 159
Route #5: 92 144 68 130 56 8 100 42 90 76 40 32 61 180 153 84 18 185 70 141 98 148 167 136 183 25 64 188
Route #6: 169 78 147 86 125 137 151 174 48 54 126 181 41 152 87 186 146 177 123 71 52 101 47 5 176 12 24 97 143 95
Route #7: 102 10 43 58 28 138 85 104 89 109 35 6 2 38 77 22 36 39 30 150 80 112 73
Route #8: 46 179 62 59 96 3 15 27 187 124 140 189 154 53 20 65 114 9 91 55 135
Cost 16980.000000